NAME : prob15e.5229.tour
COMMENT : Cost = 0_5229
COMMENT : Found by LKH [Keld Helsgaun] Sun Sep 17 01:05:33 2017
TYPE : TOUR
DIMENSION : 31
TOUR_SECTION
1
24
27
20
17
26
23
31
28
22
25
11
21
9
7
8
16
18
12
19
3
30
5
29
6
13
15
10
2
4
14
-1
EOF
